120
150
21
46
86
100
64
50
36
47
35
84
38
50
31
82
68
71
22
91
40
59
53
57
72
84
98
52
26
28
82
89
90
92
84
38
97
98
100
60
68
53
75
79
52
79
28
57
36
21
96
90
90
90
95
90
22
33
60
66
88
90
90
31
75
38
90
88
90
98
97
95
100
52
50
97
31
98
100
70
100
100
50
50
22
100
75
53
50
50
24
52
62
84
100
50
59
60
75
100
60
50
62
22
100
48
75
60
100
50
60
75
75
60
66
33
21
71
22
25
75
89
